min:+1new_variable;
-1new_variable-1v_id+1vGeo_id<= +0;
-1new_variable+1v_id-1vGeo_id<= 0;
-1new_variable-1z_id+1zGeo_id<= +0;
-1new_variable+1z_id-1zGeo_id<= 0;
-1new_variable-1vGeo_x+1zGeo_x<= +0;
-1new_variable+1vGeo_x-1zGeo_x<= 0;
-1new_variable-1vGeo_y+1zGeo_y<= +0;
-1new_variable+1vGeo_y-1zGeo_y<= 0;
-1new_variable-1v_t<= -2002;
-1new_variable+1v_t<= +2002;
-1new_variable-1z_nombre<= +0;
-1new_variable+1z_nombre<= 0;
-1new_variable-1v_id<= -12;
-1new_variable+1v_id<= +12;
-1new_variable-1v_clave<= -41;
-1new_variable+1v_clave<= +41;
-1new_variable-1v_animal<= -42;
-1new_variable+1v_animal<= +42;
-1new_variable-1v_poblacion<= -35;
-1new_variable+1v_poblacion<= +35;
-1new_variable-1vGeo_id<= -12;
-1new_variable+1vGeo_id<= +12;
-1new_variable-1vGeo_x<= -23;
-1new_variable+1vGeo_x<= +23;
-1new_variable-1vGeo_y<= -5;
-1new_variable+1vGeo_y<= +5;
-1new_variable-1vGeo_t<= -2000;
-1new_variable+1vGeo_t<= +2013;
-1new_variable-1z_id<= -1;
-1new_variable+1z_id<= +1;
-1new_variable-1z_responsable<= -2;
-1new_variable+1z_responsable<= +2;
-1new_variable-1z_t<= -2006;
-1new_variable+1z_t<= +2013;
-1new_variable-1zGeo_id<= -3;
-1new_variable+1zGeo_id<= +3;
-1new_variable-1zGeo_nombre<= -7;
-1new_variable+1zGeo_nombre<= +7;
-1new_variable-1zGeo_responsable<= -9;
-1new_variable+1zGeo_responsable<= +9;
-1new_variable-1zGeo_t<= -2008;
-1new_variable+1zGeo_t<= +2013;
new_variable >= 0;
